data/lp_files/pEFS/45_9.lp
\ Model foo
\ LP format - for model browsing. Use MPS format to capture full model detail.
Minimize
  z
Subject To
 allocateEach[1]: x[1,1] + x[2,1] + x[3,1] = 1
 allocateEach[2]: x[1,2] + x[2,2] + x[3,2] = 1
 allocateEach[3]: x[1,3] + x[2,3] + x[3,3] = 1
 allocateEach[4]: x[1,4] + x[2,4] + x[3,4] = 1
 allocateEach[5]: x[1,5] + x[2,5] + x[3,5] = 1
 allocateAllCash: cashProportion[1] + cashProportion[2] + cashProportion[3]
   = 1
 findWorstP[1,2]: z + 0.3639275056408763 cashProportion[1]
   - 0.3639275056408763 cashProportion[2] + 0.1413494431909163 x[1,1]
   + 0.3293179998544289 x[1,2] + 0.0949486862217046 x[1,3]
   + 0.0653977727636655 x[1,4] + 0.00505859232840818 x[1,5]
   - 0.1413494431909163 x[2,1] - 0.3293179998544289 x[2,2]
   - 0.0949486862217046 x[2,3] - 0.0653977727636655 x[2,4]
   - 0.00505859232840818 x[2,5] >= 0
 findWorstP[1,3]: z + 0.3639275056408763 cashProportion[1]
   - 0.3639275056408763 cashProportion[3] + 0.1413494431909163 x[1,1]
   + 0.3293179998544289 x[1,2] + 0.0949486862217046 x[1,3]
   + 0.0653977727636655 x[1,4] + 0.00505859232840818 x[1,5]
   - 0.1413494431909163 x[3,1] - 0.3293179998544289 x[3,2]
   - 0.0949486862217046 x[3,3] - 0.0653977727636655 x[3,4]
   - 0.00505859232840818 x[3,5] >= 0
 findWorstP[2,1]: z - 0.226592948427445 cashProportion[1]
   + 0.226592948427445 cashProportion[2] - 0.2265476298377594 x[1,1]
   - 0.0944666001994018 x[1,2] - 0.1657074231849904 x[1,3]
   - 0.1375192604006163 x[1,4] - 0.149166137949787 x[1,5]
   + 0.2265476298377594 x[2,1] + 0.0944666001994018 x[2,2]
   + 0.1657074231849904 x[2,3] + 0.1375192604006163 x[2,4]
   + 0.149166137949787 x[2,5] >= 0
 findWorstP[2,3]: z + 0.226592948427445 cashProportion[2]
   - 0.226592948427445 cashProportion[3] + 0.2265476298377594 x[2,1]
   + 0.0944666001994018 x[2,2] + 0.1657074231849904 x[2,3]
   + 0.1375192604006163 x[2,4] + 0.149166137949787 x[2,5]
   - 0.2265476298377594 x[3,1] - 0.0944666001994018 x[3,2]
   - 0.1657074231849904 x[3,3] - 0.1375192604006163 x[3,4]
   - 0.149166137949787 x[3,5] >= 0
 findWorstP[3,1]: z - 0.2548290097344683 cashProportion[1]
   + 0.2548290097344683 cashProportion[3] - 0.1791957596452781 x[1,1]
   - 0.1642882625758117 x[1,2] - 0.0102950919932725 x[1,3]
   - 0.1844197543448347 x[1,4] - 0.2069721217063351 x[1,5]
   + 0.1791957596452781 x[3,1] + 0.1642882625758117 x[3,2]
   + 0.0102950919932725 x[3,3] + 0.1844197543448347 x[3,4]
   + 0.2069721217063351 x[3,5] >= 0
 findWorstP[3,2]: z - 0.2548290097344683 cashProportion[2]
   + 0.2548290097344683 cashProportion[3] - 0.1791957596452781 x[2,1]
   - 0.1642882625758117 x[2,2] - 0.0102950919932725 x[2,3]
   - 0.1844197543448347 x[2,4] - 0.2069721217063351 x[2,5]
   + 0.1791957596452781 x[3,1] + 0.1642882625758117 x[3,2]
   + 0.0102950919932725 x[3,3] + 0.1844197543448347 x[3,4]
   + 0.2069721217063351 x[3,5] >= 0
Bounds
 z <= 1
 -infinity <= cashProportion[1] <= 1
 -infinity <= cashProportion[2] <= 1
 -infinity <= cashProportion[3] <= 1
Binaries
 x[1,1] x[1,2] x[1,3] x[1,4] x[1,5] x[2,1] x[2,2] x[2,3] x[2,4] x[2,5]
 x[3,1] x[3,2] x[3,3] x[3,4] x[3,5]
End
